sat
(:max-memory         18.42
 :memory             18.32
 :nlsat-arith-var    3
 :nlsat-atoms        12
 :nlsat-bool-var     1
 :nlsat-clauses      9
 :nlsat-conflicts    2
 :nlsat-decisions    1
 :nlsat-propagations 15
 :nlsat-stages       5
 :num-allocs         50360
 :rlimit-count       1184
 :time               0.00
 :total-time         0.02)
